p cnf 14 64
3 -7 -8 0
-2 -7 -11 0
8 9 -10 0
6 -11 -13 0
-3 -10 12 0
-2 -5 11 0
-4 -9 -11 0
-3 4 -7 0
-3 8 10 0
-3 9 -11 0
-3 -4 12 0
-3 -9 10 0
-6 -9 -14 0
5 -10 13 0
-1 11 12 0
-2 5 11 0
4 -8 -14 0
-5 -6 12 0
-3 8 9 0
1 -7 -14 0
1 3 -9 0
-8 10 14 0
-2 -11 14 0
1 2 13 0
5 -6 8 0
-1 4 -5 0
1 -3 -7 0
-3 -4 -9 0
-1 6 -9 0
-2 5 -9 0
2 -9 -10 0
1 -3 13 0
4 -10 -14 0
-1 -4 11 0
-3 10 -14 0
-5 6 -9 0
-8 -9 14 0
-4 -8 12 0
3 -8 -12 0
-3 5 -9 0
-3 -7 -13 0
-1 -3 -5 0
-3 12 -14 0
2 -7 11 0
-2 3 4 0
4 7 -9 0
10 13 -14 0
1 4 13 0
-1 -4 7 0
1 -3 12 0
4 -10 12 0
5 -13 14 0
-5 -7 -13 0
2 -10 12 0
1 -10 14 0
3 -5 9 0
4 9 12 0
-3 8 -11 0
-5 8 -12 0
3 -12 -13 0
8 -9 11 0
4 9 -12 0
-1 8 14 0
-9 11 13 0
